experiment/data/lkh-res/Vrp-Set-X-n200/Vrp-Set-X-n200-lkh/0.lkh1.vrp
NAME : 0
COMMENT : CVRP Instance
TYPE : CVRP
DIMENSION : 200
EDGE_WEIGHT_TYPE : EUC_2D
CAPACITY : 402
NODE_COORD_SECTION
1	95700	13500
2	14900	14100
3	100	9600
4	22800	26800
5	78100	52900
6	86700	79700
7	10900	5300
8	1300	44900
9	13300	29300
10	25900	17200
11	90800	67800
12	93000	86700
13	90300	76600
14	14300	26300
15	73500	50100
16	25900	25300
17	5900	6200
18	73700	46400
19	92500	58700
20	1600	40400
21	89300	72000
22	13100	18800
23	22600	22800
24	28500	6800
25	11300	32300
26	6700	30700
27	79700	38100
28	80400	57300
29	89200	83800
30	30700	14100
31	4000	34700
32	93300	70800
33	90600	72500
34	24200	23100
35	31000	25500
36	18300	30800
37	5700	15300
38	12200	25400
39	100	43700
40	8300	54800
41	87200	42700
42	11800	31700
43	10000	40200
44	5400	33500
45	18000	11800
46	87500	77400
47	79200	77400
48	9200	16600
49	89000	82100
50	18400	600
51	18900	29900
52	23000	23400
53	6100	72800
54	14700	50100
55	18000	37100
56	75600	45500
57	12100	24800
58	74700	75600
59	89000	82500
60	27500	6300
61	6700	13100
62	9600	1500
63	70900	61100
64	89300	82200
65	12100	17000
66	77000	58000
67	12200	32000
68	69500	62600
69	71200	67000
70	10100	9800
71	82400	81300
72	25600	26500
73	72600	55300
74	24800	35900
75	86400	74200
76	14900	7400
77	87200	32900
78	84700	81700
79	86400	57500
80	97600	81800
81	19300	12600
82	7900	8800
83	9700	40300
84	28400	42400
85	90700	84200
86	80800	59000
87	14600	12000
88	6600	48000
89	82400	63400
90	900	42100
91	15200	15700
92	31800	22300
93	85300	30700
94	18400	27700
95	26800	37900
96	18300	23600
97	9300	21700
98	20700	43900
99	28000	41700
100	8000	11000
101	2000	6700
102	14200	38400
103	16500	6300
104	6200	41000
105	17600	26100
106	22300	30100
107	83000	60800
108	700	16400
109	18800	10800
110	77000	53700
111	16800	9900
112	64100	32100
113	17400	16500
114	88600	81600
115	5300	30300
116	21600	37700
117	21400	26100
118	10400	4400
119	39300	11400
120	22200	5100
121	26100	35500
122	89400	57700
123	3500	28500
124	9300	50900
125	12700	15000
126	87300	46800
127	6000	10500
128	13300	23200
129	14700	25200
130	77800	54700
131	22700	40300
132	4600	41900
133	8200	38100
134	8300	8000
135	4300	46600
136	24600	33000
137	33700	21600
138	8300	20500
139	900	5500
140	12700	12300
141	12100	44900
142	7200	18900
143	77100	49100
144	7300	20100
145	18100	18800
146	72700	54900
147	2600	33200
148	22100	41900
149	1700	21200
150	5900	35900
151	79800	52500
152	71400	61300
153	9100	41900
154	22900	35300
155	87500	56800
156	24100	28500
157	23600	36800
158	4500	8600
159	44600	31000
160	12800	36600
161	16300	16800
162	32200	27200
163	95800	86400
164	75400	81400
165	13600	18400
166	11100	11900
167	12000	30000
168	68600	37200
169	3200	6800
170	22400	7000
171	11300	7600
172	22800	7300
173	21600	3400
174	21800	36000
175	15700	16700
176	5800	24200
177	8400	26300
178	33000	25300
179	90300	82200
180	90000	85800
181	27000	38100
182	1500	3700
183	7900	52300
184	20700	32900
185	13000	27400
186	87000	86000
187	79100	30500
188	1300	53500
189	80000	82300
190	22400	24400
191	58000	50400
192	8800	38900
193	300	17200
194	6200	49900
195	79100	69200
196	18600	37300
197	30000	2600
198	5200	20400
199	16300	30500
200	13500	27000
DEMAND_SECTION
1	0
2	83
3	52
4	73
5	70
6	86
7	51
8	74
9	84
10	52
11	93
12	91
13	89
14	64
15	75
16	64
17	61
18	2
19	86
20	95
21	100
22	73
23	61
24	83
25	60
26	85
27	48
28	66
29	70
30	91
31	54
32	55
33	64
34	56
35	62
36	89
37	100
38	96
39	67
40	21
41	15
42	55
43	58
44	84
45	85
46	91
47	55
48	79
49	79
50	82
51	91
52	89
53	22
54	31
55	85
56	22
57	72
58	59
59	95
60	99
61	98
62	54
63	96
64	69
65	97
66	67
67	80
68	65
69	86
70	90
71	72
72	69
73	80
74	72
75	62
76	78
77	24
78	88
79	70
80	71
81	76
82	93
83	64
84	80
85	91
86	75
87	81
88	79
89	71
90	51
91	65
92	68
93	39
94	69
95	55
96	100
97	98
98	87
99	55
100	79
101	68
102	99
103	52
104	99
105	85
106	77
107	51
108	55
109	54
110	70
111	88
112	9
113	91
114	65
115	67
116	93
117	70
118	73
119	98
120	64
121	68
122	100
123	66
124	8
125	98
126	15
127	71
128	92
129	72
130	76
131	76
132	93
133	97
134	79
135	99
136	58
137	84
138	82
139	86
140	77
141	75
142	59
143	24
144	69
145	95
146	83
147	53
148	56
149	57
150	67
151	62
152	62
153	91
154	60
155	71
156	68
157	84
158	64
159	71
160	82
161	59
162	72
163	95
164	63
165	94
166	92
167	98
168	14
169	85
170	52
171	85
172	96
173	62
174	76
175	72
176	94
177	52
178	51
179	54
180	96
181	96
182	82
183	10
184	54
185	82
186	58
187	28
188	37
189	90
190	91
191	95
192	89
193	88
194	100
195	87
196	66
197	88
198	74
199	70
200	80
DEPOT_SECTION
1
-1
EOF
