experiment/data/lkh-res/Vrp-Set-X-n200/Vrp-Set-X-n200-lkh/0.lkh1.log
PARAMETER_FILE = baseline_results/cvrp_lkh/Vrp-Set-X-n200/Vrp-Set-X-n200-lkh/0.lkh1.par
Reading PROBLEM_FILE: "baseline_results/cvrp_lkh/Vrp-Set-X-n200/Vrp-Set-X-n200-lkh/0.lkh1.vrp" ... done
ASCENT_CANDIDATES = 50
BACKBONE_TRIALS = 0
BACKTRACKING = NO
# BWTSP =
# CANDIDATE_FILE =
CANDIDATE_SET_TYPE = ALPHA
# DISTANCE =
DEPOT = 1
# EDGE_FILE =
EXCESS = 0.005
EXTERNAL_SALESMEN = 0
EXTRA_CANDIDATES = 0 
EXTRA_CANDIDATE_SET_TYPE = QUADRANT
GAIN23 = NO
GAIN_CRITERION = YES
INITIAL_PERIOD = 100
INITIAL_STEP_SIZE = 1
INITIAL_TOUR_ALGORITHM = WALK
# INITIAL_TOUR_FILE = 
INITIAL_TOUR_FRACTION = 1.000
# INPUT_TOUR_FILE = 
KICK_TYPE = 4
KICKS = 1
# MAX_BREADTH =
MAKESPAN = NO
MAX_CANDIDATES = 5 
MAX_SWAPS = 0
MAX_TRIALS = 10000
# MERGE_TOUR_FILE =
MOVE_TYPE = 5 SPECIAL
MTSP_MIN_SIZE = 1
MTSP_MAX_SIZE = 199
# MTSP_SOLUTION_FILE = 
# NONSEQUENTIAL_MOVE_TYPE = 5
# OPTIMUM =
OUTPUT_TOUR_FILE = baseline_results/cvrp_lkh/Vrp-Set-X-n200/Vrp-Set-X-n200-lkh/0.lkh1.tour
PATCHING_A = 1 
PATCHING_C = 0 
# PI_FILE = 
POPMUSIC_INITIAL_TOUR = NO
POPMUSIC_MAX_NEIGHBORS = 5
POPMUSIC_SAMPLE_SIZE = 10
POPMUSIC_SOLUTIONS = 50
POPMUSIC_TRIALS = 1
POPULATION_SIZE = 10
PRECISION = 100
PROBLEM_FILE = baseline_results/cvrp_lkh/Vrp-Set-X-n200/Vrp-Set-X-n200-lkh/0.lkh1.vrp
RECOMBINATION = IPT
RESTRICTED_SEARCH = YES
RUNS = 1
SALESMEN = 36
SCALE = 1
SEED = 1234
# SINTEF_SOLUTION_FILE = 
STOP_AT_OPTIMUM = YES
SUBGRADIENT = YES
# SUBPROBLEM_SIZE =
# SUBPROBLEM_TOUR_FILE = 
SUBSEQUENT_MOVE_TYPE = 5 SPECIAL
SUBSEQUENT_PATCHING = YES
# TIME_LIMIT =
# TOTAL_TIME_LIMIT =
# TOUR_FILE = 
TRACE_LEVEL = 1
VEHICLES = 36

Lower bound = 3640852.3, Ascent time = 0.06 sec.
Cand.min = 5, Cand.avg = 5.0, Cand.max = 5
Preprocessing time = 0.06 sec.
* 1: Cost = 0_6480454, Time = 0.12 sec. 
Writing OUTPUT_TOUR_FILE: "baseline_results/cvrp_lkh/Vrp-Set-X-n200/Vrp-Set-X-n200-lkh/0.lkh1.tour" ... done
* 2: Cost = 0_6356698, Time = 0.19 sec. 
Writing OUTPUT_TOUR_FILE: "baseline_results/cvrp_lkh/Vrp-Set-X-n200/Vrp-Set-X-n200-lkh/0.lkh1.tour" ... done
* 3: Cost = 0_6289306, Time = 0.23 sec. 
Writing OUTPUT_TOUR_FILE: "baseline_results/cvrp_lkh/Vrp-Set-X-n200/Vrp-Set-X-n200-lkh/0.lkh1.tour" ... done
* 8: Cost = 0_6248383, Time = 0.48 sec. 
Writing OUTPUT_TOUR_FILE: "baseline_results/cvrp_lkh/Vrp-Set-X-n200/Vrp-Set-X-n200-lkh/0.lkh1.tour" ... done
* 9: Cost = 0_6247581, Time = 0.49 sec. 
Writing OUTPUT_TOUR_FILE: "baseline_results/cvrp_lkh/Vrp-Set-X-n200/Vrp-Set-X-n200-lkh/0.lkh1.tour" ... done
* 10: Cost = 0_6178051, Time = 0.53 sec. 
Writing OUTPUT_TOUR_FILE: "baseline_results/cvrp_lkh/Vrp-Set-X-n200/Vrp-Set-X-n200-lkh/0.lkh1.tour" ... done
* 11: Cost = 0_6159481, Time = 0.64 sec. 
Writing OUTPUT_TOUR_FILE: "baseline_results/cvrp_lkh/Vrp-Set-X-n200/Vrp-Set-X-n200-lkh/0.lkh1.tour" ... done
* 17: Cost = 0_6158803, Time = 1.17 sec. 
Writing OUTPUT_TOUR_FILE: "baseline_results/cvrp_lkh/Vrp-Set-X-n200/Vrp-Set-X-n200-lkh/0.lkh1.tour" ... done
* 23: Cost = 0_6151521, Time = 1.50 sec. 
Writing OUTPUT_TOUR_FILE: "baseline_results/cvrp_lkh/Vrp-Set-X-n200/Vrp-Set-X-n200-lkh/0.lkh1.tour" ... done
* 25: Cost = 0_6147326, Time = 1.55 sec. 
Writing OUTPUT_TOUR_FILE: "baseline_results/cvrp_lkh/Vrp-Set-X-n200/Vrp-Set-X-n200-lkh/0.lkh1.tour" ... done
* 31: Cost = 0_6144818, Time = 1.79 sec. 
Writing OUTPUT_TOUR_FILE: "baseline_results/cvrp_lkh/Vrp-Set-X-n200/Vrp-Set-X-n200-lkh/0.lkh1.tour" ... done
* 32: Cost = 0_6136581, Time = 1.81 sec. 
Writing OUTPUT_TOUR_FILE: "baseline_results/cvrp_lkh/Vrp-Set-X-n200/Vrp-Set-X-n200-lkh/0.lkh1.tour" ... done
* 38: Cost = 0_6114386, Time = 2.14 sec. 
Writing OUTPUT_TOUR_FILE: "baseline_results/cvrp_lkh/Vrp-Set-X-n200/Vrp-Set-X-n200-lkh/0.lkh1.tour" ... done
* 44: Cost = 0_6101248, Time = 2.52 sec. 
Writing OUTPUT_TOUR_FILE: "baseline_results/cvrp_lkh/Vrp-Set-X-n200/Vrp-Set-X-n200-lkh/0.lkh1.tour" ... done
* 48: Cost = 0_6100980, Time = 2.77 sec. 
Writing OUTPUT_TOUR_FILE: "baseline_results/cvrp_lkh/Vrp-Set-X-n200/Vrp-Set-X-n200-lkh/0.lkh1.tour" ... done
* 49: Cost = 0_6092027, Time = 2.83 sec. 
Writing OUTPUT_TOUR_FILE: "baseline_results/cvrp_lkh/Vrp-Set-X-n200/Vrp-Set-X-n200-lkh/0.lkh1.tour" ... done
* 58: Cost = 0_6079943, Time = 3.57 sec. 
Writing OUTPUT_TOUR_FILE: "baseline_results/cvrp_lkh/Vrp-Set-X-n200/Vrp-Set-X-n200-lkh/0.lkh1.tour" ... done
* 61: Cost = 0_6075990, Time = 3.65 sec. 
Writing OUTPUT_TOUR_FILE: "baseline_results/cvrp_lkh/Vrp-Set-X-n200/Vrp-Set-X-n200-lkh/0.lkh1.tour" ... done
* 63: Cost = 0_6046334, Time = 3.67 sec. 
Writing OUTPUT_TOUR_FILE: "baseline_results/cvrp_lkh/Vrp-Set-X-n200/Vrp-Set-X-n200-lkh/0.lkh1.tour" ... done
* 66: Cost = 0_6040446, Time = 3.79 sec. 
Writing OUTPUT_TOUR_FILE: "baseline_results/cvrp_lkh/Vrp-Set-X-n200/Vrp-Set-X-n200-lkh/0.lkh1.tour" ... done
* 69: Cost = 0_6018997, Time = 3.95 sec. 
Writing OUTPUT_TOUR_FILE: "baseline_results/cvrp_lkh/Vrp-Set-X-n200/Vrp-Set-X-n200-lkh/0.lkh1.tour" ... done
* 70: Cost = 0_6001641, Time = 4.02 sec. 
Writing OUTPUT_TOUR_FILE: "baseline_results/cvrp_lkh/Vrp-Set-X-n200/Vrp-Set-X-n200-lkh/0.lkh1.tour" ... done
* 73: Cost = 0_5998146, Time = 4.14 sec. 
Writing OUTPUT_TOUR_FILE: "baseline_results/cvrp_lkh/Vrp-Set-X-n200/Vrp-Set-X-n200-lkh/0.lkh1.tour" ... done
* 74: Cost = 0_5982271, Time = 4.16 sec. 
Writing OUTPUT_TOUR_FILE: "baseline_results/cvrp_lkh/Vrp-Set-X-n200/Vrp-Set-X-n200-lkh/0.lkh1.tour" ... done
* 76: Cost = 0_5968125, Time = 4.32 sec. 
Writing OUTPUT_TOUR_FILE: "baseline_results/cvrp_lkh/Vrp-Set-X-n200/Vrp-Set-X-n200-lkh/0.lkh1.tour" ... done
* 78: Cost = 0_5968005, Time = 4.37 sec. 
Writing OUTPUT_TOUR_FILE: "baseline_results/cvrp_lkh/Vrp-Set-X-n200/Vrp-Set-X-n200-lkh/0.lkh1.tour" ... done
* 79: Cost = 0_5967775, Time = 4.41 sec. 
Writing OUTPUT_TOUR_FILE: "baseline_results/cvrp_lkh/Vrp-Set-X-n200/Vrp-Set-X-n200-lkh/0.lkh1.tour" ... done
* 81: Cost = 0_5967742, Time = 4.44 sec. 
Writing OUTPUT_TOUR_FILE: "baseline_results/cvrp_lkh/Vrp-Set-X-n200/Vrp-Set-X-n200-lkh/0.lkh1.tour" ... done
* 85: Cost = 0_5965264, Time = 4.71 sec. 
Writing OUTPUT_TOUR_FILE: "baseline_results/cvrp_lkh/Vrp-Set-X-n200/Vrp-Set-X-n200-lkh/0.lkh1.tour" ... done
* 86: Cost = 0_5950304, Time = 4.71 sec. 
Writing OUTPUT_TOUR_FILE: "baseline_results/cvrp_lkh/Vrp-Set-X-n200/Vrp-Set-X-n200-lkh/0.lkh1.tour" ... done
* 107: Cost = 0_5948310, Time = 5.43 sec. 
Writing OUTPUT_TOUR_FILE: "baseline_results/cvrp_lkh/Vrp-Set-X-n200/Vrp-Set-X-n200-lkh/0.lkh1.tour" ... done
* 118: Cost = 0_5947555, Time = 5.95 sec. 
Writing OUTPUT_TOUR_FILE: "baseline_results/cvrp_lkh/Vrp-Set-X-n200/Vrp-Set-X-n200-lkh/0.lkh1.tour" ... done
* 179: Cost = 0_5944617, Time = 8.87 sec. 
Writing OUTPUT_TOUR_FILE: "baseline_results/cvrp_lkh/Vrp-Set-X-n200/Vrp-Set-X-n200-lkh/0.lkh1.tour" ... done
* 185: Cost = 0_5939384, Time = 9.20 sec. 
Writing OUTPUT_TOUR_FILE: "baseline_results/cvrp_lkh/Vrp-Set-X-n200/Vrp-Set-X-n200-lkh/0.lkh1.tour" ... done
* 200: Cost = 0_5938007, Time = 9.98 sec. 
Writing OUTPUT_TOUR_FILE: "baseline_results/cvrp_lkh/Vrp-Set-X-n200/Vrp-Set-X-n200-lkh/0.lkh1.tour" ... done
* 204: Cost = 0_5937698, Time = 10.11 sec. 
Writing OUTPUT_TOUR_FILE: "baseline_results/cvrp_lkh/Vrp-Set-X-n200/Vrp-Set-X-n200-lkh/0.lkh1.tour" ... done
* 207: Cost = 0_5936707, Time = 10.32 sec. 
Writing OUTPUT_TOUR_FILE: "baseline_results/cvrp_lkh/Vrp-Set-X-n200/Vrp-Set-X-n200-lkh/0.lkh1.tour" ... done
* 224: Cost = 0_5929270, Time = 11.23 sec. 
Writing OUTPUT_TOUR_FILE: "baseline_results/cvrp_lkh/Vrp-Set-X-n200/Vrp-Set-X-n200-lkh/0.lkh1.tour" ... done
* 232: Cost = 0_5927524, Time = 11.49 sec. 
Writing OUTPUT_TOUR_FILE: "baseline_results/cvrp_lkh/Vrp-Set-X-n200/Vrp-Set-X-n200-lkh/0.lkh1.tour" ... done
* 245: Cost = 0_5924629, Time = 11.84 sec. 
Writing OUTPUT_TOUR_FILE: "baseline_results/cvrp_lkh/Vrp-Set-X-n200/Vrp-Set-X-n200-lkh/0.lkh1.tour" ... done
* 253: Cost = 0_5923494, Time = 12.20 sec. 
Writing OUTPUT_TOUR_FILE: "baseline_results/cvrp_lkh/Vrp-Set-X-n200/Vrp-Set-X-n200-lkh/0.lkh1.tour" ... done
* 259: Cost = 0_5921981, Time = 12.42 sec. 
Writing OUTPUT_TOUR_FILE: "baseline_results/cvrp_lkh/Vrp-Set-X-n200/Vrp-Set-X-n200-lkh/0.lkh1.tour" ... done
* 261: Cost = 0_5920659, Time = 12.47 sec. 
Writing OUTPUT_TOUR_FILE: "baseline_results/cvrp_lkh/Vrp-Set-X-n200/Vrp-Set-X-n200-lkh/0.lkh1.tour" ... done
* 282: Cost = 0_5920095, Time = 13.02 sec. 
Writing OUTPUT_TOUR_FILE: "baseline_results/cvrp_lkh/Vrp-Set-X-n200/Vrp-Set-X-n200-lkh/0.lkh1.tour" ... done
* 295: Cost = 0_5918622, Time = 13.60 sec. 
Writing OUTPUT_TOUR_FILE: "baseline_results/cvrp_lkh/Vrp-Set-X-n200/Vrp-Set-X-n200-lkh/0.lkh1.tour" ... done
* 328: Cost = 0_5917100, Time = 14.37 sec. 
Writing OUTPUT_TOUR_FILE: "baseline_results/cvrp_lkh/Vrp-Set-X-n200/Vrp-Set-X-n200-lkh/0.lkh1.tour" ... done
* 339: Cost = 0_5913372, Time = 14.83 sec. 
Writing OUTPUT_TOUR_FILE: "baseline_results/cvrp_lkh/Vrp-Set-X-n200/Vrp-Set-X-n200-lkh/0.lkh1.tour" ... done
* 347: Cost = 0_5910371, Time = 15.08 sec. 
Writing OUTPUT_TOUR_FILE: "baseline_results/cvrp_lkh/Vrp-Set-X-n200/Vrp-Set-X-n200-lkh/0.lkh1.tour" ... done
* 417: Cost = 0_5909916, Time = 17.64 sec. 
Writing OUTPUT_TOUR_FILE: "baseline_results/cvrp_lkh/Vrp-Set-X-n200/Vrp-Set-X-n200-lkh/0.lkh1.tour" ... done
* 547: Cost = 0_5909502, Time = 23.21 sec. 
Writing OUTPUT_TOUR_FILE: "baseline_results/cvrp_lkh/Vrp-Set-X-n200/Vrp-Set-X-n200-lkh/0.lkh1.tour" ... done
* 719: Cost = 0_5909174, Time = 29.64 sec. 
Writing OUTPUT_TOUR_FILE: "baseline_results/cvrp_lkh/Vrp-Set-X-n200/Vrp-Set-X-n200-lkh/0.lkh1.tour" ... done
* 762: Cost = 0_5909096, Time = 31.72 sec. 
Writing OUTPUT_TOUR_FILE: "baseline_results/cvrp_lkh/Vrp-Set-X-n200/Vrp-Set-X-n200-lkh/0.lkh1.tour" ... done
* 1095: Cost = 0_5909082, Time = 46.09 sec. 
Writing OUTPUT_TOUR_FILE: "baseline_results/cvrp_lkh/Vrp-Set-X-n200/Vrp-Set-X-n200-lkh/0.lkh1.tour" ... done
* 1214: Cost = 0_5907079, Time = 51.06 sec. 
Writing OUTPUT_TOUR_FILE: "baseline_results/cvrp_lkh/Vrp-Set-X-n200/Vrp-Set-X-n200-lkh/0.lkh1.tour" ... done
* 2034: Cost = 0_5906716, Time = 88.66 sec. 
Writing OUTPUT_TOUR_FILE: "baseline_results/cvrp_lkh/Vrp-Set-X-n200/Vrp-Set-X-n200-lkh/0.lkh1.tour" ... done
* 2875: Cost = 0_5905500, Time = 127.06 sec. 
Writing OUTPUT_TOUR_FILE: "baseline_results/cvrp_lkh/Vrp-Set-X-n200/Vrp-Set-X-n200-lkh/0.lkh1.tour" ... done
* 3099: Cost = 0_5904582, Time = 137.89 sec. 
Writing OUTPUT_TOUR_FILE: "baseline_results/cvrp_lkh/Vrp-Set-X-n200/Vrp-Set-X-n200-lkh/0.lkh1.tour" ... done
* 3393: Cost = 0_5903784, Time = 152.01 sec. 
Writing OUTPUT_TOUR_FILE: "baseline_results/cvrp_lkh/Vrp-Set-X-n200/Vrp-Set-X-n200-lkh/0.lkh1.tour" ... done
* 4074: Cost = 0_5903390, Time = 186.03 sec. 
Writing OUTPUT_TOUR_FILE: "baseline_results/cvrp_lkh/Vrp-Set-X-n200/Vrp-Set-X-n200-lkh/0.lkh1.tour" ... done
* 8644: Cost = 0_5901660, Time = 402.47 sec. 
Writing OUTPUT_TOUR_FILE: "baseline_results/cvrp_lkh/Vrp-Set-X-n200/Vrp-Set-X-n200-lkh/0.lkh1.tour" ... done
* 8694: Cost = 0_5901391, Time = 405.38 sec. 
Writing OUTPUT_TOUR_FILE: "baseline_results/cvrp_lkh/Vrp-Set-X-n200/Vrp-Set-X-n200-lkh/0.lkh1.tour" ... done
* 8695: Cost = 0_5900624, Time = 405.39 sec. 
Writing OUTPUT_TOUR_FILE: "baseline_results/cvrp_lkh/Vrp-Set-X-n200/Vrp-Set-X-n200-lkh/0.lkh1.tour" ... done
* 8979: Cost = 0_5900124, Time = 419.27 sec. 
Writing OUTPUT_TOUR_FILE: "baseline_results/cvrp_lkh/Vrp-Set-X-n200/Vrp-Set-X-n200-lkh/0.lkh1.tour" ... done
* 9275: Cost = 0_5899783, Time = 431.98 sec. 
Writing OUTPUT_TOUR_FILE: "baseline_results/cvrp_lkh/Vrp-Set-X-n200/Vrp-Set-X-n200-lkh/0.lkh1.tour" ... done
* 9613: Cost = 0_5899332, Time = 449.41 sec. 
Writing OUTPUT_TOUR_FILE: "baseline_results/cvrp_lkh/Vrp-Set-X-n200/Vrp-Set-X-n200-lkh/0.lkh1.tour" ... done
* 9669: Cost = 0_5899265, Time = 452.67 sec. 
Writing OUTPUT_TOUR_FILE: "baseline_results/cvrp_lkh/Vrp-Set-X-n200/Vrp-Set-X-n200-lkh/0.lkh1.tour" ... done
* 9926: Cost = 0_5899200, Time = 465.87 sec. 
Writing OUTPUT_TOUR_FILE: "baseline_results/cvrp_lkh/Vrp-Set-X-n200/Vrp-Set-X-n200-lkh/0.lkh1.tour" ... done
Population:
  1: 0_5899200
Run 1: Cost = 0_5899200, Time = 469.15 sec. 

Successes/Runs = 0/1 
Cost.min = 5899200, Cost.avg = 5899200.00, Cost.max = 5899200
Gap.min = 0.0000%, Gap.avg = 0.0000%, Gap.max = 0.0000%
Penalty.min = 0, Penalty.avg = 0.00, Penalty.max = 0
Trials.min = 10000, Trials.avg = 10000.0, Trials.max = 10000
Time.min = 469.15 sec., Time.avg = 469.15 sec., Time.max = 469.15 sec.
Time.total = 469.21 sec.
  Size.min = 5, Size.max = 9, Penalty = 0
  Cost.min = 97623, Cost.max = 247096, Cost.sum = 5899200
Best CVRP solution:
  Cost = 0_5899200

