experiment/data/lkh-res/Vrp-Set-X-n200/Vrp-Set-X-n200-lkh/0.lkh1.tour
NAME : 0.5899200.tour
COMMENT : Length = 5899200
COMMENT : Found by LKH-3 [Keld Helsgaun] Tue Apr  9 04:08:15 2024
TYPE : TOUR
DIMENSION : 235
TOUR_SECTION
1
93
27
56
146
73
15
18
187
202
162
136
154
157
74
95
235
70
82
17
134
76
230
50
62
118
7
171
103
218
19
11
21
33
32
233
97
138
144
198
140
205
168
53
40
183
188
8
39
90
20
206
112
54
124
194
88
135
141
229
159
191
68
63
152
227
129
14
38
57
128
225
181
131
148
98
84
217
114
49
59
64
13
213
176
123
115
26
9
224
29
180
186
6
46
214
174
55
196
116
121
228
80
163
12
85
179
208
81
45
111
170
172
207
83
104
132
153
99
203
41
28
86
79
155
122
216
87
2
125
91
175
221
25
44
147
31
150
160
220
34
190
96
105
117
231
177
149
193
108
3
166
212
94
199
36
51
106
223
197
173
120
60
24
234
195
189
71
78
75
204
126
107
89
47
164
58
69
232
119
30
10
92
137
210
37
61
127
100
109
226
178
35
72
156
4
16
215
52
23
145
161
113
211
158
169
101
139
182
201
77
151
5
130
66
110
143
209
165
22
142
48
65
222
200
185
167
42
67
219
102
43
192
133
184
-1
EOF
